33
17
0 17 19 21 25 27 29 30 32
1 17 19 21 22 23 24 25 27 28 30 31 32
2 17 19 21 25 27 28 29 30 32
3 17 19 21 22 23 25 26 27 30 31 32
4 21 23 24 25 28 29 30 31
5 17 19 20 21 25 27 31
6 17 24 25 26 28 30 31
7 18 22 23 29 30 31 32
8 18 26 27 28 29 30
9 17 21 22 23 25 27 29 31 32
10 17 19 21 23 24 30
11 19 23 31
12 17 24 25 28 31
13 19 23 29 30
14
15 20 28
16 18 32
